(synth-fun lemma ((x Int) (nil Int)) Bool

           ((Start Bool) (B1 Bool) (Loc Int))

           ((Start Bool (B1
                   (=> B1 B1)))
            (B1 Bool (
                (tree Loc) (bst Loc)))
            (Loc Int (x nil)))
)

(synth-fun rswitch () Int

           ((Start Int))
           ((Start Int (0 1)))

)
